File : Instances/p71
Used 73s
27228

0 0 1 0 1 0 0 0 0 0 1 0 1 1 0 0 1 1 0 1 1 0 0 0 1 1 0 0 1 0 
25 19 2 24 2 12 16 28 16 17 4 28 13 13 28 25 13 20 16 24 28 16 2 24 10 28 24 19 4 2 19 19 4 16 28 12 20 20 24 16 25 20 19 4 20 19 13 16 19 20 24 16 2 16 20 12 12 20 28 25 4 17 25 20 13 12 10 17 19 12 25 12 19 20 10 10 20 10 20 16 10 17 20 25 4 13 19 2 24 25 28 19 25 25 2 13 28 12 17 28 17 16 12 25 4 24 4 24 16 13 19 4 24 12 12 20 28 25 17 20 20 12 17 19 4 16 2 12 19 17 28 24 12 20 13 20 13 13 28 10 12 16 12 25 25 2 16 16 16 25 24 17 10 17 13 28 2 16 13 13 13 17 10 24 10 24 2 4 13 2 13 20 19 10 4 2 24 10 4 10 2 16 2 19 12 20 28 10 17 2 2 2 19 4 25 12 25 2 10 19 
